(set-logic ALL)
(declare-fun var0 () String)
(assert (str.in_re var0 (re.++ (re.union (re.+ (str.to_re "0")) (re.union (str.to_re "1") (str.to_re "222"))) (re.++ (re.+ (re.union (str.to_re "3") (str.to_re "4"))) (re.++ (re.* (re.* (str.to_re "5"))) (re.++ (re.* (re.union (str.to_re "6") (str.to_re "77"))) (re.++ (re.+ (re.union (str.to_re "88") (str.to_re "999"))) (re.++ (re.+ (re.union (str.to_re "aa") (str.to_re "bbb"))) (re.++ (re.union (re.union (str.to_re "ccc") (str.to_re "d")) (re.union (str.to_re "ee") (str.to_re "fff"))) (re.++ (re.* (re.union (str.to_re "ggg") (str.to_re "hh"))) (re.++ (re.+ (re.+ (str.to_re "i"))) (re.++ (re.+ (re.union (str.to_re "j") (str.to_re "kkk"))) (re.++ (re.* (re.+ (str.to_re "ll"))) (re.++ (re.* (re.+ (str.to_re "mm"))) (re.++ (re.union (re.* (str.to_re "nnn")) (re.+ (str.to_re "oo"))) (re.++ (re.* (re.* (str.to_re "pp"))) (re.++ (re.union (re.+ (str.to_re "qq")) (re.+ (str.to_re "rrr"))) (re.++ (re.* (re.+ (str.to_re "s"))) (re.++ (re.+ (re.union (str.to_re "ttt") (str.to_re "uuu"))) (re.++ (re.+ (re.* (str.to_re "v"))) (re.++ (re.+ (re.* (str.to_re "w"))) (re.++ (re.union (re.union (str.to_re "xx") (str.to_re "y")) (re.union (str.to_re "zz") (str.to_re "AA"))) (re.++ (re.union (re.+ (str.to_re "BBB")) (re.* (str.to_re "CC"))) (re.++ (re.* (re.* (str.to_re "D"))) (re.++ (re.union (re.+ (str.to_re "EEE")) (re.* (str.to_re "FF"))) (re.++ (re.+ (re.union (str.to_re "GG") (str.to_re "HHH"))) (re.++ (re.* (re.* (str.to_re "III"))) (re.++ (re.+ (re.* (str.to_re "JJ"))) (re.++ (re.* (re.* (str.to_re "KK"))) (re.++ (re.* (re.union (str.to_re "LL") (str.to_re "M"))) (re.++ (re.* (re.* (str.to_re "NN"))) (re.++ (re.* (re.+ (str.to_re "OO"))) (re.++ (re.+ (re.+ (str.to_re "P"))) (re.++ (re.+ (re.union (str.to_re "Q") (str.to_re "R"))) (re.++ (re.* (re.* (str.to_re "SS"))) (re.++ (re.union (re.union (str.to_re "T") (str.to_re "U")) (re.* (str.to_re "VVV"))) (re.++ (re.* (re.union (str.to_re "WW") (str.to_re "XX"))) (re.++ (re.union (re.+ (str.to_re "Y")) (re.* (str.to_re "Z"))) (re.++ (re.* (re.union (str.to_re "!!") (str.to_re """"""""))) (re.++ (re.union (re.+ (str.to_re "###")) (re.* (str.to_re "$$"))) (re.++ (re.* (re.* (str.to_re "%%"))) (re.++ (re.union (re.+ (str.to_re "&&&")) (re.+ (str.to_re "'"))) (re.++ (re.+ (re.union (str.to_re "((") (str.to_re ")))"))) (re.++ (re.* (re.* (str.to_re "*"))) (re.++ (re.* (re.* (str.to_re "+"))) (re.++ (re.+ (re.* (str.to_re ",,"))) (re.++ (re.union (re.* (str.to_re "---")) (re.union (str.to_re ".") (str.to_re "/"))) (re.++ (re.* (re.* (str.to_re "::"))) (re.++ (re.union (re.* (str.to_re ";")) (re.union (str.to_re "<<") (str.to_re "=="))) (re.++ (re.* (re.union (str.to_re ">") (str.to_re "???"))) (re.++ (re.union (re.* (str.to_re "@@@")) (re.union (str.to_re "[[[") (str.to_re "\\"))) (re.++ (re.* (re.+ (str.to_re "]]]"))) (re.++ (re.+ (re.* (str.to_re "^^^"))) (re.++ (re.union (re.* (str.to_re "__")) (re.+ (str.to_re "`"))) (re.++ (re.* (re.union (str.to_re "{{{") (str.to_re "||"))) (re.++ (re.union (re.* (str.to_re "}}}")) (re.* (str.to_re "~~~"))) (re.++ (re.* (re.* (str.to_re "0"))) (re.++ (re.* (re.* (str.to_re "111"))) (re.++ (re.* (re.+ (str.to_re "2"))) (re.++ (re.union (re.union (str.to_re "333") (str.to_re "44")) (re.+ (str.to_re "555"))) (re.++ (re.* (re.+ (str.to_re "666"))) (re.++ (re.+ (re.* (str.to_re "7"))) (re.++ (re.+ (re.union (str.to_re "888") (str.to_re "9"))) (re.++ (re.* (re.* (str.to_re "aa"))) (re.++ (re.* (re.union (str.to_re "bb") (str.to_re "c"))) (re.++ (re.+ (re.* (str.to_re "d"))) (re.++ (re.union (re.+ (str.to_re "eee")) (re.union (str.to_re "f") (str.to_re "g"))) (re.++ (re.+ (re.union (str.to_re "h") (str.to_re "i"))) (re.++ (re.* (re.union (str.to_re "jj") (str.to_re "kkk"))) (re.++ (re.union (re.* (str.to_re "lll")) (re.union (str.to_re "mm") (str.to_re "nnn"))) (re.++ (re.union (re.+ (str.to_re "oo")) (re.union (str.to_re "p") (str.to_re "qq"))) (re.++ (re.* (re.+ (str.to_re "r"))) (re.++ (re.union (re.* (str.to_re "s")) (re.+ (str.to_re "ttt"))) (re.++ (re.union (re.* (str.to_re "u")) (re.* (str.to_re "vvv"))) (re.++ (re.union (re.union (str.to_re "w") (str.to_re "x")) (re.* (str.to_re "yyy"))) (re.++ (re.* (re.* (str.to_re "z"))) (re.++ (re.* (re.union (str.to_re "AAA") (str.to_re "BBB"))) (re.++ (re.union (re.+ (str.to_re "CC")) (re.* (str.to_re "D"))) (re.++ (re.+ (re.union (str.to_re "E") (str.to_re "FF"))) (re.++ (re.union (re.* (str.to_re "GGG")) (re.* (str.to_re "HH"))) (re.++ (re.union (re.+ (str.to_re "I")) (re.* (str.to_re "JJ"))) (re.++ (re.* (re.* (str.to_re "KKK"))) (re.++ (re.+ (re.+ (str.to_re "L"))) (re.++ (re.union (re.* (str.to_re "MM")) (re.* (str.to_re "NN"))) (re.++ (re.* (re.* (str.to_re "OO"))) (re.++ (re.+ (re.union (str.to_re "PP") (str.to_re "QQ"))) (re.++ (re.+ (re.+ (str.to_re "RRR"))) (re.++ (re.+ (re.+ (str.to_re "S"))) (re.++ (re.* (re.* (str.to_re "TTT"))) (re.++ (re.union (re.* (str.to_re "UUU")) (re.union (str.to_re "V") (str.to_re "WWW"))) (re.++ (re.+ (re.union (str.to_re "X") (str.to_re "YY"))) (re.++ (re.+ (re.+ (str.to_re "Z"))) (re.++ (re.* (re.union (str.to_re "!!!") (str.to_re """"""""))) (re.++ (re.* (re.union (str.to_re "###") (str.to_re "$$$"))) (re.++ (re.union (re.union (str.to_re "%%") (str.to_re "&")) (re.union (str.to_re "'") (str.to_re "("))) (re.++ (re.union (re.* (str.to_re ")")) (re.+ (str.to_re "**"))) (re.++ (re.+ (re.+ (str.to_re "+"))) (re.* (re.+ (str.to_re ","))))))))))))))))))))))))))))))))))))))))))))))))))))))))))))))))))))))))))))))))))))))))))))))))))))
(assert (not (str.in_re var0 (re.++ (re.union (re.union (str.to_re "000") (str.to_re "111")) (re.union (str.to_re "2") (str.to_re "33"))) (re.++ (re.* (re.* (str.to_re "44"))) (re.++ (re.* (re.* (str.to_re "55"))) (re.++ (re.+ (re.+ (str.to_re "6"))) (re.++ (re.union (re.union (str.to_re "777") (str.to_re "88")) (re.union (str.to_re "9") (str.to_re "a"))) (re.++ (re.+ (re.union (str.to_re "b") (str.to_re "c"))) (re.++ (re.* (re.+ (str.to_re "dd"))) (re.++ (re.union (re.* (str.to_re "ee")) (re.* (str.to_re "f"))) (re.++ (re.* (re.union (str.to_re "g") (str.to_re "hh"))) (re.++ (re.union (re.* (str.to_re "ii")) (re.union (str.to_re "jjj") (str.to_re "k"))) (re.++ (re.* (re.union (str.to_re "lll") (str.to_re "mm"))) (re.++ (re.union (re.+ (str.to_re "nn")) (re.+ (str.to_re "o"))) (re.++ (re.+ (re.* (str.to_re "ppp"))) (re.++ (re.* (re.* (str.to_re "qq"))) (re.++ (re.* (re.union (str.to_re "rr") (str.to_re "s"))) (re.++ (re.union (re.+ (str.to_re "t")) (re.* (str.to_re "uu"))) (re.++ (re.union (re.* (str.to_re "v")) (re.+ (str.to_re "w"))) (re.++ (re.union (re.+ (str.to_re "xx")) (re.+ (str.to_re "y"))) (re.++ (re.+ (re.* (str.to_re "zz"))) (re.++ (re.* (re.+ (str.to_re "AA"))) (re.++ (re.union (re.+ (str.to_re "B")) (re.union (str.to_re "CC") (str.to_re "DD"))) (re.++ (re.* (re.union (str.to_re "EEE") (str.to_re "F"))) (re.++ (re.+ (re.* (str.to_re "GG"))) (re.++ (re.+ (re.union (str.to_re "HH") (str.to_re "I"))) (re.++ (re.* (re.* (str.to_re "JJ"))) (re.++ (re.union (re.* (str.to_re "KK")) (re.union (str.to_re "LLL") (str.to_re "MM"))) (re.++ (re.* (re.* (str.to_re "NN"))) (re.++ (re.+ (re.* (str.to_re "OOO"))) (re.++ (re.+ (re.+ (str.to_re "PPP"))) (re.++ (re.+ (re.+ (str.to_re "QQQ"))) (re.++ (re.+ (re.union (str.to_re "RR") (str.to_re "SS"))) (re.++ (re.union (re.union (str.to_re "TT") (str.to_re "UUU")) (re.union (str.to_re "V") (str.to_re "WW"))) (re.++ (re.* (re.union (str.to_re "XXX") (str.to_re "YY"))) (re.++ (re.* (re.+ (str.to_re "Z"))) (re.++ (re.+ (re.* (str.to_re "!!!"))) (re.++ (re.* (re.+ (str.to_re """"))) (re.++ (re.union (re.+ (str.to_re "##")) (re.* (str.to_re "$$$"))) (re.++ (re.+ (re.* (str.to_re "%%"))) (re.++ (re.+ (re.* (str.to_re "&&"))) (re.++ (re.* (re.+ (str.to_re "''"))) (re.++ (re.+ (re.* (str.to_re "((("))) (re.++ (re.+ (re.union (str.to_re ")))") (str.to_re "***"))) (re.++ (re.+ (re.* (str.to_re "+"))) (re.++ (re.union (re.* (str.to_re ",")) (re.union (str.to_re "-") (str.to_re "."))) (re.++ (re.union (re.union (str.to_re "///") (str.to_re "::")) (re.+ (str.to_re ";"))) (re.++ (re.* (re.* (str.to_re "<<<"))) (re.++ (re.union (re.+ (str.to_re "===")) (re.+ (str.to_re ">>>"))) (re.++ (re.* (re.union (str.to_re "?") (str.to_re "@@"))) (re.++ (re.* (re.union (str.to_re "[[[") (str.to_re "\\\\"))) (re.++ (re.+ (re.+ (str.to_re "]]]"))) (re.++ (re.* (re.+ (str.to_re "^"))) (re.++ (re.+ (re.* (str.to_re "___"))) (re.++ (re.+ (re.* (str.to_re "```"))) (re.++ (re.+ (re.union (str.to_re "{") (str.to_re "||"))) (re.++ (re.+ (re.union (str.to_re "}}}") (str.to_re "~~"))) (re.++ (re.* (re.+ (str.to_re "00"))) (re.++ (re.+ (re.* (str.to_re "111"))) (re.++ (re.+ (re.union (str.to_re "222") (str.to_re "333"))) (re.++ (re.+ (re.union (str.to_re "4") (str.to_re "55"))) (re.++ (re.union (re.union (str.to_re "66") (str.to_re "777")) (re.+ (str.to_re "8"))) (re.++ (re.+ (re.+ (str.to_re "9"))) (re.++ (re.+ (re.+ (str.to_re "aaa"))) (re.++ (re.+ (re.+ (str.to_re "b"))) (re.++ (re.* (re.+ (str.to_re "c"))) (re.++ (re.union (re.* (str.to_re "ddd")) (re.union (str.to_re "ee") (str.to_re "fff"))) (re.++ (re.* (re.* (str.to_re "ggg"))) (re.++ (re.+ (re.union (str.to_re "hh") (str.to_re "i"))) (re.++ (re.* (re.+ (str.to_re "j"))) (re.++ (re.* (re.+ (str.to_re "kkk"))) (re.++ (re.+ (re.+ (str.to_re "lll"))) (re.++ (re.union (re.* (str.to_re "mm")) (re.* (str.to_re "nn"))) (re.++ (re.* (re.* (str.to_re "ooo"))) (re.++ (re.* (re.union (str.to_re "p") (str.to_re "qqq"))) (re.++ (re.+ (re.* (str.to_re "rrr"))) (re.++ (re.union (re.union (str.to_re "s") (str.to_re "ttt")) (re.union (str.to_re "uu") (str.to_re "vvv"))) (re.++ (re.+ (re.+ (str.to_re "ww"))) (re.++ (re.union (re.union (str.to_re "x") (str.to_re "y")) (re.+ (str.to_re "z"))) (re.++ (re.+ (re.+ (str.to_re "A"))) (re.++ (re.* (re.+ (str.to_re "BBB"))) (re.++ (re.+ (re.+ (str.to_re "CCC"))) (re.++ (re.* (re.* (str.to_re "D"))) (re.++ (re.+ (re.* (str.to_re "EE"))) (re.++ (re.* (re.union (str.to_re "F") (str.to_re "G"))) (re.++ (re.union (re.+ (str.to_re "HH")) (re.union (str.to_re "I") (str.to_re "J"))) (re.++ (re.+ (re.+ (str.to_re "K"))) (re.++ (re.union (re.* (str.to_re "LLL")) (re.union (str.to_re "MM") (str.to_re "N"))) (re.++ (re.+ (re.union (str.to_re "OOO") (str.to_re "PPP"))) (re.++ (re.+ (re.* (str.to_re "Q"))) (re.++ (re.+ (re.* (str.to_re "RR"))) (re.++ (re.union (re.* (str.to_re "S")) (re.* (str.to_re "TTT"))) (re.++ (re.union (re.union (str.to_re "U") (str.to_re "VVV")) (re.union (str.to_re "WWW") (str.to_re "X"))) (re.++ (re.union (re.+ (str.to_re "YY")) (re.+ (str.to_re "Z"))) (re.++ (re.* (re.* (str.to_re "!!!"))) (re.++ (re.+ (re.union (str.to_re """") (str.to_re "#"))) (re.++ (re.+ (re.union (str.to_re "$$$") (str.to_re "%%%"))) (re.+ (re.union (str.to_re "&&") (str.to_re "'")))))))))))))))))))))))))))))))))))))))))))))))))))))))))))))))))))))))))))))))))))))))))))))))))))))
(check-sat)